10
0 11 48 46 28 38 43 47 42 19 
11 0 19 50 14 37 26 35 55 18 
48 19 0 43 28 51 54 56 32 10 
46 50 43 0 53 22 41 51 26 10 
28 14 28 53 0 26 15 55 34 54 
38 37 51 22 26 0 44 10 10 26 
43 26 54 41 15 44 0 19 17 54 
47 35 56 51 55 10 19 0 46 37 
42 55 32 26 34 10 17 46 0 33 
19 18 10 10 54 26 54 37 33 0 
